p ds 20 5
1 2
1 4
1 9
1 10
1 12
1 16
2 9
2 16
2 19
3 4
3 6
3 7
3 9
3 13
3 18
3 19
4 5
4 6
4 11
4 12
4 14
4 16
4 17
5 6
5 7
5 12
5 18
5 19
6 7
6 8
6 10
6 11
6 14
6 15
7 12
7 13
7 16
7 17
7 19
8 11
8 12
8 16
8 20
9 11
9 12
9 15
9 19
9 20
10 11
10 12
11 17
12 13
12 14
12 16
12 19
13 14
13 15
14 17
14 19
14 20
15 16
15 17
15 18
16 18
16 19
17 18
18 19
18 20
